NAME: random-50-26797
TYPE: TSP
COMMENT: size=50 seed=26797
DIMENSION: 102
EDGE_WEIGHT_TYPE: EUC_2D
NODE_COORD_SECTION
+0 179 425
-0 179 425
+1 638 835
-1 348 189
+2 290 311
-2 108 559
+3 375 352
-3 135 373
+4 971 731
-4 202 987
+5 502 952
-5 119 125
+6 242 961
-6 695 185
+7 243 512
-7 38 994
+8 360 462
-8 142 136
+9 319 710
-9 731 854
+10 206 721
-10 66 803
+11 219 56
-11 241 98
+12 989 511
-12 64 694
+13 239 566
-13 727 263
+14 889 274
-14 902 257
+15 507 9
-15 308 925
+16 364 502
-16 912 319
+17 857 129
-17 707 286
+18 767 272
-18 240 843
+19 106 918
-19 43 760
+20 254 645
-20 338 441
+21 947 172
-21 669 602
+22 493 789
-22 380 455
+23 803 116
-23 864 259
+24 478 386
-24 334 11
+25 791 823
-25 875 550
+26 196 580
-26 275 814
+27 631 509
-27 173 110
+28 698 232
-28 727 598
+29 367 456
-29 152 99
+30 834 303
-30 658 29
+31 975 909
-31 657 494
+32 773 391
-32 878 874
+33 238 118
-33 613 654
+34 938 873
-34 889 371
+35 219 813
-35 945 839
+36 149 39
-36 480 524
+37 863 552
-37 886 268
+38 796 499
-38 400 17
+39 768 923
-39 206 629
+40 304 680
-40 457 128
+41 966 104
-41 424 833
+42 19 833
-42 917 414
+43 868 324
-43 780 747
+44 43 583
-44 589 359
+45 43 309
-45 765 581
+46 945 949
-46 795 13
+47 337 744
-47 452 470
+48 859 779
-48 787 856
+49 503 882
-49 679 91
+50 554 516
-50 502 587
PRECEDENCE_SECTION
+0 -0
+1 -1
+2 -2
+3 -3
+4 -4
+5 -5
+6 -6
+7 -7
+8 -8
+9 -9
+10 -10
+11 -11
+12 -12
+13 -13
+14 -14
+15 -15
+16 -16
+17 -17
+18 -18
+19 -19
+20 -20
+21 -21
+22 -22
+23 -23
+24 -24
+25 -25
+26 -26
+27 -27
+28 -28
+29 -29
+30 -30
+31 -31
+32 -32
+33 -33
+34 -34
+35 -35
+36 -36
+37 -37
+38 -38
+39 -39
+40 -40
+41 -41
+42 -42
+43 -43
+44 -44
+45 -45
+46 -46
+47 -47
+48 -48
+49 -49
+50 -50
EOF
